db/inputs/5711129186058101082154731790150343316.smt2
(set-logic QF_FP)
(declare-const x0 (_ FloatingPoint 11 53))
(declare-const x1 (_ FloatingPoint 11 53))
(declare-const x2 (_ FloatingPoint 11 53))
(declare-const x3 (_ FloatingPoint 11 53))
(declare-const x4 (_ FloatingPoint 11 53))
(declare-const x5 (_ FloatingPoint 11 53))
(declare-const x6 (_ FloatingPoint 11 53))
(declare-const x7 (_ FloatingPoint 11 53))
(declare-const x8 (_ FloatingPoint 11 53))
(assert (fp.leq (fp.neg (fp.div RNE x4 x3)) (fp.neg (fp.neg x3))))
(assert (fp.gt (fp.add RNE (fp.div RNE x3 x5) (fp.mul RNE x4 x7)) (fp.mul RNE (fp.div RNE x0 x6) (fp.sub RNE x4 x0))))
(assert (fp.lt (fp.mul RNE (fp.neg x5) (fp.mul RNE x6 x5)) (fp.add RNE (fp.add RNE x1 x3) (fp.neg x6))))
(assert (fp.geq (fp.add RNE (fp.mul RNE x4 x6) (fp.sub RNE x3 x4)) (fp.div RNE (fp.add RNE x6 x0) (fp.neg x0))))
(assert (fp.eq (fp.sub RNE (fp.mul RNE x1 x2) (fp.mul RNE x3 x8)) (fp.add RNE (fp.neg x3) (fp.div RNE x2 x8))))
(check-sat)
