db/data/5711129186058101082154731790150343316.z3.out
-------------------
2500.104399996
